32      4       
23      6       14      15      
0       0       0       0       0       3       2       3       4       
3       8       0       0       0       3       5       6       27      
10      5       0       0       0       3       23      26      27      
2       0       0       5       0       3       9       13      16      
5       9       0       0       0       3       8       11      13      
10      2       0       0       0       3       7       14      30      
1       6       0       0       0       3       12      19      22      
1       0       0       4       0       3       15      17      18      
10      7       0       0       0       3       10      12      22      
3       0       0       0       3       3       14      17      21      
9       1       0       0       0       3       12      14      15      
5       0       0       0       1       2       17      18      
10      0       0       0       8       3       15      21      25      
5       0       1       0       0       3       18      19      25      
4       0       1       0       0       3       19      22      24      
4       0       0       0       5       2       20      21      
6       0       0       9       0       2       25      26      
6       8       0       0       0       1       23      
6       0       1       0       0       1       31      
8       0       0       0       4       3       23      24      27      
1       0       0       8       0       2       24      30      
8       0       0       2       0       2       28      31      
8       0       0       0       7       1       28      
3       0       5       0       0       2       26      29      
4       0       6       0       0       1       28      
1       0       0       7       0       1       31      
9       0       0       3       0       2       29      30      
3       0       1       0       0       1       29      
5       0       0       0       3       1       32      
7       0       0       0       7       1       32      
2       0       0       8       0       1       32      
0       0       0       0       0       0       